c This DIMACS format CNF file was generated by SatSolver.cpp
c Do not edit.
p cnf 147 925
1 22 43 64 85 106 127 0
2 23 44 65 86 107 128 0
3 24 45 66 87 108 129 0
4 25 46 67 88 109 130 0
5 26 47 68 89 110 131 0
6 27 48 69 90 111 132 0
7 28 49 70 91 112 133 0
8 29 50 71 92 113 134 0
9 30 51 72 93 114 135 0
10 31 52 73 94 115 136 0
11 32 53 74 95 116 137 0
12 33 54 75 96 117 138 0
13 34 55 76 97 118 139 0
14 35 56 77 98 119 140 0
15 36 57 78 99 120 141 0
16 37 58 79 100 121 142 0
17 38 59 80 101 122 143 0
18 39 60 81 102 123 144 0
19 40 61 82 103 124 145 0
20 41 62 83 104 125 146 0
21 42 63 84 105 126 147 0
-1 -22 0
-1 -43 0
-1 -64 0
-1 -85 0
-1 -106 0
-1 -127 0
-22 -1 0
-22 -43 0
-22 -64 0
-22 -85 0
-22 -106 0
-22 -127 0
-43 -1 0
-43 -22 0
-43 -64 0
-43 -85 0
-43 -106 0
-43 -127 0
-64 -1 0
-64 -22 0
-64 -43 0
-64 -85 0
-64 -106 0
-64 -127 0
-85 -1 0
-85 -22 0
-85 -43 0
-85 -64 0
-85 -106 0
-85 -127 0
-106 -1 0
-106 -22 0
-106 -43 0
-106 -64 0
-106 -85 0
-106 -127 0
-127 -1 0
-127 -22 0
-127 -43 0
-127 -64 0
-127 -85 0
-127 -106 0
-2 -23 0
-2 -44 0
-2 -65 0
-2 -86 0
-2 -107 0
-2 -128 0
-23 -2 0
-23 -44 0
-23 -65 0
-23 -86 0
-23 -107 0
-23 -128 0
-44 -2 0
-44 -23 0
-44 -65 0
-44 -86 0
-44 -107 0
-44 -128 0
-65 -2 0
-65 -23 0
-65 -44 0
-65 -86 0
-65 -107 0
-65 -128 0
-86 -2 0
-86 -23 0
-86 -44 0
-86 -65 0
-86 -107 0
-86 -128 0
-107 -2 0
-107 -23 0
-107 -44 0
-107 -65 0
-107 -86 0
-107 -128 0
-128 -2 0
-128 -23 0
-128 -44 0
-128 -65 0
-128 -86 0
-128 -107 0
-3 -24 0
-3 -45 0
-3 -66 0
-3 -87 0
-3 -108 0
-3 -129 0
-24 -3 0
-24 -45 0
-24 -66 0
-24 -87 0
-24 -108 0
-24 -129 0
-45 -3 0
-45 -24 0
-45 -66 0
-45 -87 0
-45 -108 0
-45 -129 0
-66 -3 0
-66 -24 0
-66 -45 0
-66 -87 0
-66 -108 0
-66 -129 0
-87 -3 0
-87 -24 0
-87 -45 0
-87 -66 0
-87 -108 0
-87 -129 0
-108 -3 0
-108 -24 0
-108 -45 0
-108 -66 0
-108 -87 0
-108 -129 0
-129 -3 0
-129 -24 0
-129 -45 0
-129 -66 0
-129 -87 0
-129 -108 0
-4 -25 0
-4 -46 0
-4 -67 0
-4 -88 0
-4 -109 0
-4 -130 0
-25 -4 0
-25 -46 0
-25 -67 0
-25 -88 0
-25 -109 0
-25 -130 0
-46 -4 0
-46 -25 0
-46 -67 0
-46 -88 0
-46 -109 0
-46 -130 0
-67 -4 0
-67 -25 0
-67 -46 0
-67 -88 0
-67 -109 0
-67 -130 0
-88 -4 0
-88 -25 0
-88 -46 0
-88 -67 0
-88 -109 0
-88 -130 0
-109 -4 0
-109 -25 0
-109 -46 0
-109 -67 0
-109 -88 0
-109 -130 0
-130 -4 0
-130 -25 0
-130 -46 0
-130 -67 0
-130 -88 0
-130 -109 0
-5 -26 0
-5 -47 0
-5 -68 0
-5 -89 0
-5 -110 0
-5 -131 0
-26 -5 0
-26 -47 0
-26 -68 0
-26 -89 0
-26 -110 0
-26 -131 0
-47 -5 0
-47 -26 0
-47 -68 0
-47 -89 0
-47 -110 0
-47 -131 0
-68 -5 0
-68 -26 0
-68 -47 0
-68 -89 0
-68 -110 0
-68 -131 0
-89 -5 0
-89 -26 0
-89 -47 0
-89 -68 0
-89 -110 0
-89 -131 0
-110 -5 0
-110 -26 0
-110 -47 0
-110 -68 0
-110 -89 0
-110 -131 0
-131 -5 0
-131 -26 0
-131 -47 0
-131 -68 0
-131 -89 0
-131 -110 0
-6 -27 0
-6 -48 0
-6 -69 0
-6 -90 0
-6 -111 0
-6 -132 0
-27 -6 0
-27 -48 0
-27 -69 0
-27 -90 0
-27 -111 0
-27 -132 0
-48 -6 0
-48 -27 0
-48 -69 0
-48 -90 0
-48 -111 0
-48 -132 0
-69 -6 0
-69 -27 0
-69 -48 0
-69 -90 0
-69 -111 0
-69 -132 0
-90 -6 0
-90 -27 0
-90 -48 0
-90 -69 0
-90 -111 0
-90 -132 0
-111 -6 0
-111 -27 0
-111 -48 0
-111 -69 0
-111 -90 0
-111 -132 0
-132 -6 0
-132 -27 0
-132 -48 0
-132 -69 0
-132 -90 0
-132 -111 0
-7 -28 0
-7 -49 0
-7 -70 0
-7 -91 0
-7 -112 0
-7 -133 0
-28 -7 0
-28 -49 0
-28 -70 0
-28 -91 0
-28 -112 0
-28 -133 0
-49 -7 0
-49 -28 0
-49 -70 0
-49 -91 0
-49 -112 0
-49 -133 0
-70 -7 0
-70 -28 0
-70 -49 0
-70 -91 0
-70 -112 0
-70 -133 0
-91 -7 0
-91 -28 0
-91 -49 0
-91 -70 0
-91 -112 0
-91 -133 0
-112 -7 0
-112 -28 0
-112 -49 0
-112 -70 0
-112 -91 0
-112 -133 0
-133 -7 0
-133 -28 0
-133 -49 0
-133 -70 0
-133 -91 0
-133 -112 0
-8 -29 0
-8 -50 0
-8 -71 0
-8 -92 0
-8 -113 0
-8 -134 0
-29 -8 0
-29 -50 0
-29 -71 0
-29 -92 0
-29 -113 0
-29 -134 0
-50 -8 0
-50 -29 0
-50 -71 0
-50 -92 0
-50 -113 0
-50 -134 0
-71 -8 0
-71 -29 0
-71 -50 0
-71 -92 0
-71 -113 0
-71 -134 0
-92 -8 0
-92 -29 0
-92 -50 0
-92 -71 0
-92 -113 0
-92 -134 0
-113 -8 0
-113 -29 0
-113 -50 0
-113 -71 0
-113 -92 0
-113 -134 0
-134 -8 0
-134 -29 0
-134 -50 0
-134 -71 0
-134 -92 0
-134 -113 0
-9 -30 0
-9 -51 0
-9 -72 0
-9 -93 0
-9 -114 0
-9 -135 0
-30 -9 0
-30 -51 0
-30 -72 0
-30 -93 0
-30 -114 0
-30 -135 0
-51 -9 0
-51 -30 0
-51 -72 0
-51 -93 0
-51 -114 0
-51 -135 0
-72 -9 0
-72 -30 0
-72 -51 0
-72 -93 0
-72 -114 0
-72 -135 0
-93 -9 0
-93 -30 0
-93 -51 0
-93 -72 0
-93 -114 0
-93 -135 0
-114 -9 0
-114 -30 0
-114 -51 0
-114 -72 0
-114 -93 0
-114 -135 0
-135 -9 0
-135 -30 0
-135 -51 0
-135 -72 0
-135 -93 0
-135 -114 0
-10 -31 0
-10 -52 0
-10 -73 0
-10 -94 0
-10 -115 0
-10 -136 0
-31 -10 0
-31 -52 0
-31 -73 0
-31 -94 0
-31 -115 0
-31 -136 0
-52 -10 0
-52 -31 0
-52 -73 0
-52 -94 0
-52 -115 0
-52 -136 0
-73 -10 0
-73 -31 0
-73 -52 0
-73 -94 0
-73 -115 0
-73 -136 0
-94 -10 0
-94 -31 0
-94 -52 0
-94 -73 0
-94 -115 0
-94 -136 0
-115 -10 0
-115 -31 0
-115 -52 0
-115 -73 0
-115 -94 0
-115 -136 0
-136 -10 0
-136 -31 0
-136 -52 0
-136 -73 0
-136 -94 0
-136 -115 0
-11 -32 0
-11 -53 0
-11 -74 0
-11 -95 0
-11 -116 0
-11 -137 0
-32 -11 0
-32 -53 0
-32 -74 0
-32 -95 0
-32 -116 0
-32 -137 0
-53 -11 0
-53 -32 0
-53 -74 0
-53 -95 0
-53 -116 0
-53 -137 0
-74 -11 0
-74 -32 0
-74 -53 0
-74 -95 0
-74 -116 0
-74 -137 0
-95 -11 0
-95 -32 0
-95 -53 0
-95 -74 0
-95 -116 0
-95 -137 0
-116 -11 0
-116 -32 0
-116 -53 0
-116 -74 0
-116 -95 0
-116 -137 0
-137 -11 0
-137 -32 0
-137 -53 0
-137 -74 0
-137 -95 0
-137 -116 0
-12 -33 0
-12 -54 0
-12 -75 0
-12 -96 0
-12 -117 0
-12 -138 0
-33 -12 0
-33 -54 0
-33 -75 0
-33 -96 0
-33 -117 0
-33 -138 0
-54 -12 0
-54 -33 0
-54 -75 0
-54 -96 0
-54 -117 0
-54 -138 0
-75 -12 0
-75 -33 0
-75 -54 0
-75 -96 0
-75 -117 0
-75 -138 0
-96 -12 0
-96 -33 0
-96 -54 0
-96 -75 0
-96 -117 0
-96 -138 0
-117 -12 0
-117 -33 0
-117 -54 0
-117 -75 0
-117 -96 0
-117 -138 0
-138 -12 0
-138 -33 0
-138 -54 0
-138 -75 0
-138 -96 0
-138 -117 0
-13 -34 0
-13 -55 0
-13 -76 0
-13 -97 0
-13 -118 0
-13 -139 0
-34 -13 0
-34 -55 0
-34 -76 0
-34 -97 0
-34 -118 0
-34 -139 0
-55 -13 0
-55 -34 0
-55 -76 0
-55 -97 0
-55 -118 0
-55 -139 0
-76 -13 0
-76 -34 0
-76 -55 0
-76 -97 0
-76 -118 0
-76 -139 0
-97 -13 0
-97 -34 0
-97 -55 0
-97 -76 0
-97 -118 0
-97 -139 0
-118 -13 0
-118 -34 0
-118 -55 0
-118 -76 0
-118 -97 0
-118 -139 0
-139 -13 0
-139 -34 0
-139 -55 0
-139 -76 0
-139 -97 0
-139 -118 0
-14 -35 0
-14 -56 0
-14 -77 0
-14 -98 0
-14 -119 0
-14 -140 0
-35 -14 0
-35 -56 0
-35 -77 0
-35 -98 0
-35 -119 0
-35 -140 0
-56 -14 0
-56 -35 0
-56 -77 0
-56 -98 0
-56 -119 0
-56 -140 0
-77 -14 0
-77 -35 0
-77 -56 0
-77 -98 0
-77 -119 0
-77 -140 0
-98 -14 0
-98 -35 0
-98 -56 0
-98 -77 0
-98 -119 0
-98 -140 0
-119 -14 0
-119 -35 0
-119 -56 0
-119 -77 0
-119 -98 0
-119 -140 0
-140 -14 0
-140 -35 0
-140 -56 0
-140 -77 0
-140 -98 0
-140 -119 0
-15 -36 0
-15 -57 0
-15 -78 0
-15 -99 0
-15 -120 0
-15 -141 0
-36 -15 0
-36 -57 0
-36 -78 0
-36 -99 0
-36 -120 0
-36 -141 0
-57 -15 0
-57 -36 0
-57 -78 0
-57 -99 0
-57 -120 0
-57 -141 0
-78 -15 0
-78 -36 0
-78 -57 0
-78 -99 0
-78 -120 0
-78 -141 0
-99 -15 0
-99 -36 0
-99 -57 0
-99 -78 0
-99 -120 0
-99 -141 0
-120 -15 0
-120 -36 0
-120 -57 0
-120 -78 0
-120 -99 0
-120 -141 0
-141 -15 0
-141 -36 0
-141 -57 0
-141 -78 0
-141 -99 0
-141 -120 0
-16 -37 0
-16 -58 0
-16 -79 0
-16 -100 0
-16 -121 0
-16 -142 0
-37 -16 0
-37 -58 0
-37 -79 0
-37 -100 0
-37 -121 0
-37 -142 0
-58 -16 0
-58 -37 0
-58 -79 0
-58 -100 0
-58 -121 0
-58 -142 0
-79 -16 0
-79 -37 0
-79 -58 0
-79 -100 0
-79 -121 0
-79 -142 0
-100 -16 0
-100 -37 0
-100 -58 0
-100 -79 0
-100 -121 0
-100 -142 0
-121 -16 0
-121 -37 0
-121 -58 0
-121 -79 0
-121 -100 0
-121 -142 0
-142 -16 0
-142 -37 0
-142 -58 0
-142 -79 0
-142 -100 0
-142 -121 0
-17 -38 0
-17 -59 0
-17 -80 0
-17 -101 0
-17 -122 0
-17 -143 0
-38 -17 0
-38 -59 0
-38 -80 0
-38 -101 0
-38 -122 0
-38 -143 0
-59 -17 0
-59 -38 0
-59 -80 0
-59 -101 0
-59 -122 0
-59 -143 0
-80 -17 0
-80 -38 0
-80 -59 0
-80 -101 0
-80 -122 0
-80 -143 0
-101 -17 0
-101 -38 0
-101 -59 0
-101 -80 0
-101 -122 0
-101 -143 0
-122 -17 0
-122 -38 0
-122 -59 0
-122 -80 0
-122 -101 0
-122 -143 0
-143 -17 0
-143 -38 0
-143 -59 0
-143 -80 0
-143 -101 0
-143 -122 0
-18 -39 0
-18 -60 0
-18 -81 0
-18 -102 0
-18 -123 0
-18 -144 0
-39 -18 0
-39 -60 0
-39 -81 0
-39 -102 0
-39 -123 0
-39 -144 0
-60 -18 0
-60 -39 0
-60 -81 0
-60 -102 0
-60 -123 0
-60 -144 0
-81 -18 0
-81 -39 0
-81 -60 0
-81 -102 0
-81 -123 0
-81 -144 0
-102 -18 0
-102 -39 0
-102 -60 0
-102 -81 0
-102 -123 0
-102 -144 0
-123 -18 0
-123 -39 0
-123 -60 0
-123 -81 0
-123 -102 0
-123 -144 0
-144 -18 0
-144 -39 0
-144 -60 0
-144 -81 0
-144 -102 0
-144 -123 0
-19 -40 0
-19 -61 0
-19 -82 0
-19 -103 0
-19 -124 0
-19 -145 0
-40 -19 0
-40 -61 0
-40 -82 0
-40 -103 0
-40 -124 0
-40 -145 0
-61 -19 0
-61 -40 0
-61 -82 0
-61 -103 0
-61 -124 0
-61 -145 0
-82 -19 0
-82 -40 0
-82 -61 0
-82 -103 0
-82 -124 0
-82 -145 0
-103 -19 0
-103 -40 0
-103 -61 0
-103 -82 0
-103 -124 0
-103 -145 0
-124 -19 0
-124 -40 0
-124 -61 0
-124 -82 0
-124 -103 0
-124 -145 0
-145 -19 0
-145 -40 0
-145 -61 0
-145 -82 0
-145 -103 0
-145 -124 0
-20 -41 0
-20 -62 0
-20 -83 0
-20 -104 0
-20 -125 0
-20 -146 0
-41 -20 0
-41 -62 0
-41 -83 0
-41 -104 0
-41 -125 0
-41 -146 0
-62 -20 0
-62 -41 0
-62 -83 0
-62 -104 0
-62 -125 0
-62 -146 0
-83 -20 0
-83 -41 0
-83 -62 0
-83 -104 0
-83 -125 0
-83 -146 0
-104 -20 0
-104 -41 0
-104 -62 0
-104 -83 0
-104 -125 0
-104 -146 0
-125 -20 0
-125 -41 0
-125 -62 0
-125 -83 0
-125 -104 0
-125 -146 0
-146 -20 0
-146 -41 0
-146 -62 0
-146 -83 0
-146 -104 0
-146 -125 0
-21 -42 0
-21 -63 0
-21 -84 0
-21 -105 0
-21 -126 0
-21 -147 0
-42 -21 0
-42 -63 0
-42 -84 0
-42 -105 0
-42 -126 0
-42 -147 0
-63 -21 0
-63 -42 0
-63 -84 0
-63 -105 0
-63 -126 0
-63 -147 0
-84 -21 0
-84 -42 0
-84 -63 0
-84 -105 0
-84 -126 0
-84 -147 0
-105 -21 0
-105 -42 0
-105 -63 0
-105 -84 0
-105 -126 0
-105 -147 0
-126 -21 0
-126 -42 0
-126 -63 0
-126 -84 0
-126 -105 0
-126 -147 0
-147 -21 0
-147 -42 0
-147 -63 0
-147 -84 0
-147 -105 0
-147 -126 0
127 0
128 0
129 0
130 0
131 0
132 0
133 0
134 0
135 0
136 0
137 0
138 0
139 0
140 0
141 0
142 0
143 0
144 0
145 0
146 0
147 0
147 0
